sat
(:binary-propagations  98
 :decisions            209
 :del-clause           49
 :final-checks         9
 :max-generation       1
 :max-memory           23.08
 :memory               20.85
 :mk-bool-var          245
 :mk-clause            73
 :mk-clause-binary     146
 :num-allocs           4587552
 :num-checks           1
 :propagations         161
 :quant-instantiations 49
 :restarts             8
 :rlimit-count         76377
 :time                 0.02)
